p edge 75 833
e 1 3
e 1 8
e 1 10
e 1 13
e 1 14
e 1 15
e 1 16
e 1 22
e 1 25
e 1 29
e 1 38
e 1 41
e 1 45
e 1 46
e 1 49
e 1 57
e 1 59
e 1 60
e 1 64
e 1 66
e 1 72
e 1 75
e 2 4
e 2 7
e 2 15
e 2 16
e 2 18
e 2 22
e 2 26
e 2 28
e 2 37
e 2 38
e 2 40
e 2 45
e 2 52
e 2 53
e 2 54
e 2 56
e 2 58
e 2 61
e 2 63
e 2 65
e 2 71
e 2 72
e 2 74
e 3 4
e 3 5
e 3 6
e 3 8
e 3 10
e 3 11
e 3 15
e 3 16
e 3 20
e 3 21
e 3 29
e 3 36
e 3 38
e 3 39
e 3 46
e 3 48
e 3 49
e 3 50
e 3 51
e 3 53
e 3 54
e 3 55
e 3 61
e 3 62
e 3 64
e 3 69
e 3 70
e 3 71
e 3 72
e 4 6
e 4 11
e 4 17
e 4 18
e 4 20
e 4 22
e 4 24
e 4 31
e 4 33
e 4 35
e 4 39
e 4 40
e 4 41
e 4 43
e 4 44
e 4 55
e 4 56
e 4 57
e 4 59
e 4 60
e 4 62
e 4 65
e 4 68
e 4 71
e 4 72
e 5 6
e 5 9
e 5 13
e 5 18
e 5 20
e 5 28
e 5 30
e 5 37
e 5 38
e 5 43
e 5 45
e 5 46
e 5 47
e 5 51
e 5 54
e 5 58
e 5 64
e 5 67
e 5 71
e 5 73
e 5 75
e 6 9
e 6 15
e 6 17
e 6 18
e 6 25
e 6 26
e 6 27
e 6 31
e 6 45
e 6 48
e 6 50
e 6 56
e 6 58
e 6 60
e 6 68
e 6 69
e 6 70
e 6 71
e 6 72
e 7 9
e 7 11
e 7 15
e 7 18
e 7 19
e 7 21
e 7 22
e 7 24
e 7 26
e 7 27
e 7 28
e 7 29
e 7 31
e 7 32
e 7 37
e 7 42
e 7 43
e 7 44
e 7 45
e 7 47
e 7 48
e 7 49
e 7 51
e 7 54
e 7 56
e 7 64
e 7 65
e 7 68
e 7 74
e 7 75
e 8 12
e 8 15
e 8 16
e 8 17
e 8 18
e 8 20
e 8 22
e 8 25
e 8 28
e 8 38
e 8 40
e 8 43
e 8 46
e 8 48
e 8 50
e 8 53
e 8 57
e 8 66
e 8 67
e 8 69
e 8 74
e 9 10
e 9 15
e 9 17
e 9 18
e 9 25
e 9 30
e 9 31
e 9 32
e 9 33
e 9 34
e 9 38
e 9 43
e 9 45
e 9 52
e 9 53
e 9 65
e 9 67
e 10 11
e 10 14
e 10 20
e 10 22
e 10 25
e 10 29
e 10 31
e 10 36
e 10 38
e 10 39
e 10 40
e 10 46
e 10 47
e 10 51
e 10 56
e 10 57
e 10 61
e 10 62
e 10 63
e 10 65
e 10 67
e 10 68
e 10 69
e 10 73
e 10 74
e 10 75
e 11 14
e 11 15
e 11 16
e 11 22
e 11 23
e 11 24
e 11 26
e 11 29
e 11 34
e 11 45
e 11 47
e 11 49
e 11 54
e 11 55
e 11 57
e 11 59
e 11 62
e 11 63
e 11 64
e 11 70
e 11 75
e 12 23
e 12 24
e 12 29
e 12 32
e 12 38
e 12 41
e 12 48
e 12 51
e 12 59
e 12 60
e 12 62
e 12 65
e 12 72
e 12 73
e 13 17
e 13 21
e 13 31
e 13 32
e 13 35
e 13 36
e 13 39
e 13 40
e 13 42
e 13 43
e 13 55
e 13 56
e 13 57
e 13 59
e 13 62
e 13 64
e 13 69
e 13 70
e 13 73
e 14 15
e 14 19
e 14 22
e 14 27
e 14 30
e 14 33
e 14 35
e 14 37
e 14 38
e 14 40
e 14 41
e 14 44
e 14 46
e 14 48
e 14 53
e 14 54
e 14 55
e 14 64
e 14 67
e 14 71
e 14 72
e 14 75
e 15 18
e 15 23
e 15 35
e 15 45
e 15 47
e 15 49
e 15 51
e 15 52
e 15 61
e 15 65
e 15 66
e 15 67
e 15 68
e 15 69
e 15 71
e 15 72
e 15 75
e 16 24
e 16 28
e 16 29
e 16 30
e 16 35
e 16 37
e 16 40
e 16 41
e 16 43
e 16 46
e 16 49
e 16 50
e 16 51
e 16 52
e 16 54
e 16 56
e 16 58
e 16 62
e 16 67
e 16 68
e 16 71
e 17 19
e 17 20
e 17 29
e 17 30
e 17 42
e 17 44
e 17 46
e 17 52
e 17 56
e 17 57
e 17 62
e 17 63
e 17 68
e 17 69
e 18 19
e 18 20
e 18 22
e 18 32
e 18 33
e 18 40
e 18 41
e 18 44
e 18 45
e 18 47
e 18 50
e 18 62
e 18 64
e 18 65
e 18 66
e 18 67
e 18 71
e 19 21
e 19 24
e 19 27
e 19 34
e 19 35
e 19 38
e 19 39
e 19 43
e 19 45
e 19 50
e 19 56
e 19 58
e 19 59
e 19 60
e 19 63
e 19 66
e 19 73
e 19 74
e 19 75
e 20 22
e 20 25
e 20 29
e 20 32
e 20 34
e 20 38
e 20 42
e 20 44
e 20 49
e 20 50
e 20 65
e 20 67
e 20 68
e 20 70
e 20 74
e 21 22
e 21 24
e 21 26
e 21 27
e 21 30
e 21 31
e 21 33
e 21 36
e 21 38
e 21 42
e 21 46
e 21 47
e 21 49
e 21 51
e 21 53
e 21 57
e 21 58
e 21 64
e 21 65
e 21 72
e 21 74
e 22 27
e 22 29
e 22 33
e 22 34
e 22 41
e 22 42
e 22 44
e 22 46
e 22 50
e 22 52
e 22 53
e 22 55
e 22 58
e 22 59
e 22 62
e 22 64
e 22 69
e 22 75
e 23 26
e 23 29
e 23 30
e 23 38
e 23 40
e 23 42
e 23 43
e 23 45
e 23 46
e 23 49
e 23 54
e 23 56
e 23 72
e 23 74
e 23 75
e 24 30
e 24 33
e 24 35
e 24 42
e 24 47
e 24 58
e 24 62
e 24 68
e 24 69
e 24 70
e 24 72
e 24 73
e 25 26
e 25 28
e 25 29
e 25 34
e 25 35
e 25 36
e 25 43
e 25 45
e 25 48
e 25 51
e 25 53
e 25 55
e 25 56
e 25 57
e 25 58
e 25 59
e 25 64
e 25 71
e 26 33
e 26 34
e 26 36
e 26 39
e 26 47
e 26 48
e 26 54
e 26 57
e 26 59
e 26 62
e 26 63
e 26 64
e 26 68
e 27 28
e 27 32
e 27 35
e 27 37
e 27 38
e 27 42
e 27 53
e 27 54
e 27 55
e 27 58
e 27 60
e 27 61
e 27 62
e 27 65
e 27 66
e 27 68
e 27 73
e 27 75
e 28 33
e 28 34
e 28 42
e 28 48
e 28 50
e 28 58
e 28 61
e 28 67
e 28 69
e 28 70
e 28 75
e 29 32
e 29 40
e 29 41
e 29 44
e 29 47
e 29 50
e 29 51
e 29 53
e 29 54
e 29 64
e 29 68
e 29 73
e 29 75
e 30 37
e 30 40
e 30 44
e 30 46
e 30 47
e 30 49
e 30 50
e 30 53
e 30 57
e 30 60
e 30 63
e 30 64
e 30 66
e 30 68
e 30 69
e 30 70
e 30 75
e 31 32
e 31 34
e 31 44
e 31 46
e 31 54
e 31 57
e 31 59
e 31 72
e 31 73
e 31 75
e 32 39
e 32 40
e 32 53
e 32 55
e 32 56
e 32 57
e 32 63
e 32 66
e 32 74
e 33 40
e 33 41
e 33 43
e 33 45
e 33 49
e 33 50
e 33 54
e 33 65
e 33 67
e 33 68
e 33 69
e 33 70
e 33 72
e 33 74
e 34 39
e 34 40
e 34 44
e 34 53
e 34 55
e 34 70
e 34 75
e 35 36
e 35 38
e 35 40
e 35 44
e 35 46
e 35 59
e 35 60
e 35 61
e 35 62
e 35 64
e 35 72
e 36 37
e 36 41
e 36 42
e 36 47
e 36 48
e 36 49
e 36 56
e 36 60
e 36 61
e 36 62
e 36 65
e 36 66
e 36 70
e 36 73
e 36 74
e 37 38
e 37 44
e 37 46
e 37 48
e 37 50
e 37 52
e 37 53
e 37 60
e 37 61
e 37 66
e 38 39
e 38 45
e 38 53
e 38 54
e 38 55
e 38 56
e 38 60
e 38 64
e 38 66
e 38 70
e 39 41
e 39 44
e 39 45
e 39 52
e 39 54
e 39 55
e 39 57
e 39 58
e 39 61
e 39 66
e 39 69
e 39 74
e 40 42
e 40 43
e 40 50
e 40 54
e 40 57
e 40 59
e 40 60
e 40 66
e 40 67
e 40 70
e 41 45
e 41 47
e 41 53
e 41 54
e 41 59
e 41 60
e 41 65
e 41 73
e 41 74
e 42 45
e 42 48
e 42 49
e 42 52
e 42 54
e 42 57
e 42 62
e 42 64
e 43 46
e 43 53
e 43 60
e 43 62
e 43 65
e 43 67
e 43 72
e 44 45
e 44 53
e 44 61
e 44 64
e 44 65
e 44 74
e 45 49
e 45 50
e 45 51
e 45 54
e 45 55
e 45 56
e 45 57
e 45 61
e 45 65
e 45 66
e 45 67
e 45 68
e 46 47
e 46 52
e 46 57
e 46 59
e 46 64
e 46 66
e 46 71
e 46 75
e 47 48
e 47 50
e 47 51
e 47 52
e 47 53
e 47 54
e 47 56
e 47 58
e 47 59
e 47 68
e 47 74
e 47 75
e 48 50
e 48 56
e 48 58
e 48 61
e 48 69
e 48 74
e 49 60
e 49 61
e 49 64
e 49 66
e 50 55
e 50 61
e 50 70
e 51 53
e 51 54
e 51 57
e 51 64
e 51 67
e 51 70
e 52 53
e 52 59
e 52 61
e 52 67
e 52 70
e 52 75
e 53 57
e 53 59
e 53 64
e 53 67
e 53 71
e 53 72
e 53 75
e 54 55
e 54 62
e 54 69
e 54 71
e 54 73
e 55 60
e 55 68
e 55 74
e 55 75
e 56 59
e 56 64
e 56 69
e 56 70
e 56 71
e 56 72
e 56 73
e 57 58
e 57 61
e 57 62
e 57 64
e 57 65
e 57 66
e 57 68
e 57 69
e 57 73
e 58 59
e 58 63
e 58 64
e 58 65
e 58 66
e 58 69
e 59 61
e 59 65
e 59 69
e 59 73
e 59 75
e 60 67
e 60 68
e 60 72
e 62 64
e 62 67
e 63 66
e 63 67
e 63 68
e 63 75
e 64 65
e 64 66
e 64 70
e 64 75
e 65 67
e 65 68
e 65 71
e 65 73
e 66 72
e 66 73
e 67 69
e 67 75
e 68 74
e 69 73
e 69 74
e 70 73
e 71 75
e 72 74
